Version identifier: 22.1.1.0 | 2022-11-28 | 9160aff4d
CPXPARAM_ClockType                               1
CPXPARAM_Read_DataCheck                          1
CPXPARAM_Threads                                 1
CPXPARAM_TimeLimit                               7200
CPXPARAM_MIP_Tolerances_AbsMIPGap                0
CPXPARAM_MIP_Tolerances_MIPGap                   0
CPXPARAM_MIP_Tolerances_Integrality              0
Tried aggregator 2 times.
MIP Presolve eliminated 1235 rows and 0 columns.
MIP Presolve modified 1300 coefficients.
Aggregator did 450 substitutions.
Reduced MIP has 2540 rows, 1650 columns, and 7080 nonzeros.
Reduced MIP has 1650 binaries, 0 generals, 0 SOSs, and 0 indicators.
Presolve time = 0.02 sec. (9.77 ticks)
Probing time = 0.01 sec. (1.14 ticks)
Tried aggregator 1 time.
Detecting symmetries...
MIP Presolve eliminated 250 rows and 0 columns.
Reduced MIP has 2290 rows, 1650 columns, and 6330 nonzeros.
Reduced MIP has 1650 binaries, 0 generals, 0 SOSs, and 0 indicators.
Presolve time = 0.01 sec. (7.43 ticks)
Probing time = 0.00 sec. (0.95 ticks)
Clique table members: 1840.
MIP emphasis: balance optimality and feasibility.
MIP search method: dynamic search.
Parallel mode: none, using 1 thread.
Root relaxation solution time = 0.14 sec. (118.28 ticks)

        Nodes                                         Cuts/
   Node  Left     Objective  IInf  Best Integer    Best Bound    ItCnt     Gap

      0     0      800.0000   796                    800.0000     1775         
      0     0      800.0000   708                 ZeroHalf: 1     1776         
      0     0      800.0000   784                    Cuts: 69     2910         
      0     0      800.0000   704                 ZeroHalf: 6     3000         
      0     0      800.0000   698                ZeroHalf: 79     3185         
*     0+    0                          694.0000      800.0000            15.27%
*     0+    0                          696.0000      800.0000            14.94%
      0     2      800.0000   729      696.0000      800.0000     3732   14.94%
Elapsed time = 2.00 sec. (1337.62 ticks, tree = 0.01 MB, solutions = 2)
     10    12      800.0000   645      696.0000      800.0000     5930   14.94%
     24    26      800.0000   629      696.0000      800.0000     8770   14.94%
     32    34      800.0000   503      696.0000      800.0000    12574   14.94%
     38    40      800.0000   635      696.0000      800.0000    16685   14.94%
     43    43    infeasible            696.0000      800.0000    19283   14.94%
     47    47      800.0000   570      696.0000      800.0000    21793   14.94%
     54    54      800.0000   461      696.0000      800.0000    24553   14.94%
     63    63      800.0000   440      696.0000      800.0000    27275   14.94%
     65    65      800.0000   522      696.0000      800.0000    30296   14.94%
     81    81      796.0000   591      696.0000      800.0000    40112   14.94%
Elapsed time = 6.38 sec. (5101.93 ticks, tree = 0.16 MB, solutions = 2)
    106    94      798.8000   587      696.0000      800.0000    50615   14.94%
    123    93      800.0000   477      696.0000      800.0000    59359   14.94%
    140   102      800.0000   470      696.0000      800.0000    69663   14.94%
    160   110    infeasible            696.0000      800.0000    79843   14.94%
    171   113      783.1667   564      696.0000      800.0000    91124   14.94%
    185   111    infeasible            696.0000      800.0000    99931   14.94%
    196   116      798.0000   386      696.0000      800.0000   109558   14.94%
    215   121      798.4167   549      696.0000      800.0000   118891   14.94%
    226   122      799.6667   663      696.0000      800.0000   129484   14.94%
    240   130      799.4667   684      696.0000      800.0000   139039   14.94%
Elapsed time = 18.92 sec. (15549.16 ticks, tree = 0.60 MB, solutions = 2)
    253   131    infeasible            696.0000      800.0000   147986   14.94%
    264   134    infeasible            696.0000      800.0000   157208   14.94%
    280   146      799.7333   602      696.0000      800.0000   167505   14.94%
    293   151      799.6444   634      696.0000      800.0000   179574   14.94%
    306   152      780.2963   582      696.0000      800.0000   192489   14.94%
    323   157      798.0000   390      696.0000      800.0000   202086   14.94%
    336   162    infeasible            696.0000      800.0000   211812   14.94%
    354   172      797.6667   563      696.0000      800.0000   220713   14.94%
    375   183      799.0000   513      696.0000      800.0000   228962   14.94%
    389   187    infeasible            696.0000      800.0000   238431   14.94%
Elapsed time = 31.18 sec. (25565.58 ticks, tree = 1.23 MB, solutions = 2)
    402   190      800.0000   638      696.0000      800.0000   248360   14.94%
    421   201      790.1176   582      696.0000      800.0000   257453   14.94%
    434   198    infeasible            696.0000      800.0000   267915   14.94%
    445   201      800.0000   612      696.0000      800.0000   277402   14.94%
    460   208      800.0000   442      696.0000      800.0000   286358   14.94%
    474   208    infeasible            696.0000      800.0000   296596   14.94%
    487   215    infeasible            696.0000      800.0000   306614   14.94%
    499   217    infeasible            696.0000      800.0000   317903   14.94%
    513   219    infeasible            696.0000      800.0000   327924   14.94%
    521   217    infeasible            696.0000      800.0000   338201   14.94%
Elapsed time = 43.35 sec. (35773.42 ticks, tree = 1.71 MB, solutions = 2)
    534   218    infeasible            696.0000      800.0000   349190   14.94%
    548   224      795.2000   584      696.0000      800.0000   357952   14.94%
    564   224    infeasible            696.0000      800.0000   367407   14.94%
    578   220    infeasible            696.0000      800.0000   377877   14.94%
    588   222    infeasible            696.0000      800.0000   389197   14.94%
    601   223      800.0000   620      696.0000      800.0000   398089   14.94%
    615   223    infeasible            696.0000      800.0000   408392   14.94%
    625   225    infeasible            696.0000      800.0000   417881   14.94%
    640   228      800.0000   442      696.0000      800.0000   425292   14.94%
    653   229        cutoff            696.0000      800.0000   434344   14.94%
Elapsed time = 55.53 sec. (45788.58 ticks, tree = 1.97 MB, solutions = 2)
    669   231    infeasible            696.0000      800.0000   444158   14.94%
    683   229    infeasible            696.0000      800.0000   453983   14.94%
    705   235      796.4762   618      696.0000      800.0000   463494   14.94%
    723   243    infeasible            696.0000      800.0000   472212   14.94%
    743   249      800.0000   465      696.0000      800.0000   480603   14.94%
    758   254      799.8788   673      696.0000      800.0000   490121   14.94%
    774   256      771.5000   521      696.0000      800.0000   500453   14.94%
    790   254      783.1111   536      696.0000      800.0000   512467   14.94%
    813   261    infeasible            696.0000      800.0000   520951   14.94%
    827   265      799.3333   620      696.0000      800.0000   529887   14.94%
Elapsed time = 67.73 sec. (56003.80 ticks, tree = 2.71 MB, solutions = 2)
    848   278      798.0000   570      696.0000      800.0000   538395   14.94%
    864   278      799.3333   502      696.0000      800.0000   548053   14.94%
    878   278      798.5062   628      696.0000      800.0000   556956   14.94%
    894   278    infeasible            696.0000      800.0000   566863   14.94%
    913   279      800.0000   498      696.0000      800.0000   576307   14.94%
    928   278      800.0000   445      696.0000      800.0000   584795   14.94%
    944   280      800.0000   650      696.0000      800.0000   593439   14.94%
    973   297      799.2174   670      696.0000      800.0000   601880   14.94%
    989   297    infeasible            696.0000      800.0000   612166   14.94%
   1002   296    infeasible            696.0000      800.0000   621786   14.94%
Elapsed time = 79.83 sec. (66005.56 ticks, tree = 3.49 MB, solutions = 2)
   1019   301      799.5556   619      696.0000      800.0000   631658   14.94%
   1039   307      799.2963   652      696.0000      800.0000   641313   14.94%
   1053   309      800.0000   700      696.0000      800.0000   649822   14.94%
   1102   320      799.0000   258      696.0000      800.0000   657389   14.94%
   1145   323      792.0000   399      696.0000      800.0000   665417   14.94%
   1167   325      790.2778   566      696.0000      800.0000   675281   14.94%
   1185   323    infeasible            696.0000      800.0000   684726   14.94%
   1201   321        cutoff            696.0000      800.0000   694429   14.94%
   1217   327      800.0000   654      696.0000      800.0000   703295   14.94%
   1237   335      800.0000   613      696.0000      800.0000   711598   14.94%
Elapsed time = 92.26 sec. (75911.39 ticks, tree = 4.28 MB, solutions = 2)
   1248   336      776.6667   578      696.0000      800.0000   721213   14.94%
   1262   334    infeasible            696.0000      800.0000   730657   14.94%
   1273   333      799.7692   632      696.0000      800.0000   740704   14.94%
   1286   332    infeasible            696.0000      800.0000   750629   14.94%
   1300   332    infeasible            696.0000      800.0000   760478   14.94%
   1314   334      795.3333   611      696.0000      800.0000   770053   14.94%
   1330   336      799.4318   682      696.0000      800.0000   778507   14.94%
   1346   340      799.4444   565      696.0000      800.0000   788200   14.94%
   1371   341      800.0000   678      696.0000      800.0000   797238   14.94%
   1384   338    infeasible            696.0000      800.0000   806770   14.94%
Elapsed time = 104.41 sec. (85949.85 ticks, tree = 4.48 MB, solutions = 2)
   1398   341      799.4444   569      696.0000      800.0000   816223   14.94%
   1424   349      799.4444   522      696.0000      800.0000   825167   14.94%
   1445   350      799.2778   571      696.0000      800.0000   834943   14.94%
   1464   345      799.3333   590      696.0000      800.0000   844644   14.94%
   1485   350      800.0000   391      696.0000      800.0000   853746   14.94%
   1501   342    infeasible            696.0000      800.0000   864381   14.94%
   1519   340    infeasible            696.0000      800.0000   873788   14.94%
   1536   339    infeasible            696.0000      800.0000   884023   14.94%
   1548   335      800.0000   615      696.0000      800.0000   893354   14.94%
   1610   335    infeasible            696.0000      800.0000   928979   14.94%
Elapsed time = 120.58 sec. (98844.92 ticks, tree = 4.46 MB, solutions = 2)
   1658   333      794.2440   598      696.0000      800.0000   968061   14.94%
   1732   347    infeasible            696.0000      800.0000  1004391   14.94%
*  1760+  357                          724.0000      800.0000            10.50%
   1814   351    infeasible            724.0000      800.0000  1041359   10.50%
   1858   345      799.9286   659      724.0000      800.0000  1079467   10.50%
*  1860+  343                          728.0000      800.0000             9.89%
   1903   336      797.2778   651      728.0000      800.0000  1118548    9.89%
   1970   351      799.8824   614      728.0000      800.0000  1151742    9.89%
*  1971+  350                          738.0000      800.0000             8.40%
*  1973+  350                          746.0000      800.0000             7.24%
   2053   384      799.5556   559      746.0000      800.0000  1181152    7.24%

Performing restart 1

Repeating presolve.
Tried aggregator 2 times.
MIP Presolve eliminated 45 rows and 12 columns.
Aggregator did 6 substitutions.
Reduced MIP has 2239 rows, 1632 columns, and 6206 nonzeros.
Reduced MIP has 1632 binaries, 0 generals, 0 SOSs, and 0 indicators.
Presolve time = 0.01 sec. (5.40 ticks)
Tried aggregator 2 times.
MIP Presolve eliminated 8 rows and 3 columns.
Aggregator did 1 substitutions.
Reduced MIP has 2230 rows, 1628 columns, and 6185 nonzeros.
Reduced MIP has 1628 binaries, 0 generals, 0 SOSs, and 0 indicators.
Presolve time = 0.01 sec. (8.00 ticks)
Represolve time = 0.06 sec. (31.81 ticks)
   2083     0      800.0000   679      746.0000       Cuts: 8  1195328    7.24%
   2083     0      800.0000   707      746.0000     Cuts: 134  1195780    7.24%
   2083     0      800.0000   753      746.0000      Cuts: 57  1196044    7.24%
   2086     5      800.0000   697      746.0000      800.0000  1200478    7.24%
   2143    25      798.6667   222      746.0000      800.0000  1218479    7.24%
*  2183+   37                          758.0000      800.0000             5.54%
*  2183+   37                          784.0000      800.0000             2.04%
*  2183+   27                          794.0000      800.0000             0.76%
*  2183+   20                          796.0000      800.0000             0.50%
*  2183+    1                          800.0000      800.0000             0.00%

Clique cuts applied:  1
Zero-half cuts applied:  6

Root node processing (before b&c):
  Real time             =    2.00 sec. (1331.03 ticks)
Sequential b&c:
  Real time             =  164.61 sec. (134566.55 ticks)
                          ------------
Total (root+branch&cut) =  166.61 sec. (135897.58 ticks)
Solution is feasible.

---------------------
@@@ MIP_optimal
>>> Benchmark flat50-4.cnf k 5 OPT 800 TimeCost 167.56615042686462 TimeSolve 167.26515579223633 TimeRead 0.014898538589477539 TimeTrans 0.28609609603881836
